NAME : ch130.6568.tour
COMMENT : Cost = 0_6568
COMMENT : Found by LKH [Keld Helsgaun] Thu Nov 16 16:24:32 2017
TYPE : TOUR
DIMENSION : 134
TOUR_SECTION
1
39
131
71
132
128
105
62
28
115
112
117
3
83
30
59
90
125
85
66
78
121
126
114
108
8
18
21
33
22
37
40
47
23
96
13
67
10
14
122
55
102
6
91
72
49
58
53
120
60
51
42
44
93
20
46
80
118
54
35
4
106
38
92
73
99
74
75
52
65
56
9
57
82
101
123
111
119
84
36
32
113
25
48
63
68
98
110
89
94
77
103
81
12
87
79
95
116
24
29
15
100
19
27
31
17
34
43
104
127
107
70
97
7
26
88
86
69
64
124
129
61
109
76
11
5
45
16
133
130
50
2
134
41
-1
EOF
